NAME : in_house_8_2
TYPE : TSP
DIMENSION : 8
EDGE_WEIGHT_TYPE : EXPLICIT
EDGE_WEIGHT_FORMAT : UPPER_ROW
COMMENT : INVERSION_SHIFT=1
EDGE_WEIGHT_SECTION
12
34
49
1
28
27
3
3
19
18
36
54
11
51
1
64
24
28
62
58
1
44
36
12
19
9
60
62
